(set-logic HORN)
(set-info :source |
    Benchmark: C_VC
    Output by Princess (http://www.philipp.ruemmer.org/princess.shtml)
|)
(set-info :status unsat)
(declare-heap Heap Addr HeapObject
 defObj
 ((HeapObject 0)) (
  (
   (O_Int (getInt Int))
   (O_UInt (getUInt Int))
   (O_Addr (getAddr Addr))
   (defObj)
  )
))
(declare-fun inv_main13 (Heap AddrRange AddrRange Int Int) Bool)
(declare-fun inv_main14 (Heap AddrRange AddrRange Int Int) Bool)
(declare-fun inv_main16 (Heap AddrRange AddrRange Int Int) Bool)
(declare-fun inv_main19 (Heap AddrRange AddrRange Int Int) Bool)
(declare-fun inv_main21 (Heap AddrRange AddrRange Int Int Int) Bool)
(declare-fun inv_main25 (Heap AddrRange AddrRange Int Int Int) Bool)
(declare-fun inv_main28 (Heap AddrRange AddrRange Int Int Int) Bool)
(declare-fun inv_main6 (Heap AddrRange AddrRange Int Int) Bool)
(assert (forall ((var0 Int) (var1 Int) (var2 AddrRange) (var3 AddrRange) (var4 Int) (var5 Heap) (var6 AddrRange) (var7 Int) (var8 Heap) (var9 Heap)) (or (not (and (and (= var9 emptyHeap) (and (= var8 (newBatchHeap (batchAlloc emptyHeap (O_Int var7) 200000))) (= var6 (newAddrRange (batchAlloc emptyHeap (O_Int var7) 200000))))) (and (and (= var5 (newBatchHeap (batchAlloc emptyHeap (O_Int var4) 200000))) (= var3 var6)) (= var2 (newAddrRange (batchAlloc emptyHeap (O_Int var4) 200000)))))) (inv_main6 var5 var3 var2 var1 var0))))
(assert (forall ((var0 Int) (var1 Int) (var2 Int) (var3 AddrRange) (var4 AddrRange) (var5 Heap)) (or (not (and (inv_main25 var5 var4 var3 var2 var1 var0) (and (not (= var0 var1)) (<= 0 (+ (+ 200000 (* (- 1) var0)) (- 1)))))) (inv_main28 var5 var4 var3 var2 var1 var0))))
(assert (forall ((var0 Int) (var1 Int) (var2 AddrRange) (var3 AddrRange) (var4 Heap)) (or (not (inv_main6 var4 var3 var2 var1 var0)) (inv_main13 var4 var3 var2 0 150000))))
(assert (forall ((var0 Int) (var1 AddrRange) (var2 AddrRange) (var3 Int) (var4 Heap) (var5 Int) (var6 Int) (var7 Int) (var8 AddrRange) (var9 AddrRange) (var10 Heap)) (or (not (and (inv_main14 var10 var9 var8 var7 var6) (and (<= 0 (+ (+ 200000 (* (- 1) (+ var5 1))) (- 1))) (and (and (is-O_Int (read var10 (nthAddrRange var8 var7))) (is-O_Int (read var10 (nthAddrRange var8 var7)))) (and (and (and (and (= var4 (write var10 (nthAddrRange var8 var7) (O_Int var3))) (= var2 var9)) (= var1 var8)) (= var5 var7)) (= var0 var6)))))) (inv_main13 var4 var2 var1 (+ var5 1) var0))))
(assert (forall ((var0 Int) (var1 Int) (var2 AddrRange) (var3 AddrRange) (var4 Int) (var5 Heap) (var6 Int) (var7 Int) (var8 AddrRange) (var9 AddrRange) (var10 Heap)) (or (not (and (inv_main13 var10 var9 var8 var7 var6) (and (and (is-O_Int (read var10 (nthAddrRange var9 var7))) (is-O_Int (read var10 (nthAddrRange var9 var7)))) (and (and (and (and (= var5 (write var10 (nthAddrRange var9 var7) (O_Int var4))) (= var3 var9)) (= var2 var8)) (= var1 var7)) (= var0 var6))))) (inv_main14 var5 var3 var2 var1 var0))))
(assert (forall ((var0 Int) (var1 AddrRange) (var2 AddrRange) (var3 Int) (var4 Heap) (var5 Int) (var6 Int) (var7 Int) (var8 AddrRange) (var9 AddrRange) (var10 Heap)) (or (not (and (inv_main14 var10 var9 var8 var7 var6) (and (not (<= 0 (+ (+ 200000 (* (- 1) (+ var5 1))) (- 1)))) (and (and (is-O_Int (read var10 (nthAddrRange var8 var7))) (is-O_Int (read var10 (nthAddrRange var8 var7)))) (and (and (and (and (= var4 (write var10 (nthAddrRange var8 var7) (O_Int var3))) (= var2 var9)) (= var1 var8)) (= var5 var7)) (= var0 var6)))))) (inv_main16 var4 var2 var1 0 var0))))
(assert (forall ((var0 Int) (var1 Int) (var2 AddrRange) (var3 AddrRange) (var4 Heap) (var5 Int) (var6 Int) (var7 Int) (var8 AddrRange) (var9 AddrRange) (var10 Heap)) (or (not (and (inv_main21 var10 var9 var8 var7 var6 var5) (and (and (is-O_Int (read var10 (nthAddrRange var8 var7))) (is-O_Int (read var10 (nthAddrRange var8 var7)))) (and (and (and (and (= var4 (write var10 (nthAddrRange var8 var7) (O_Int var5))) (= var3 var9)) (= var2 var8)) (= var1 var7)) (= var0 var6))))) (inv_main16 var4 var3 var2 (+ var1 1) var0))))
(assert (forall ((var0 Int) (var1 Int) (var2 AddrRange) (var3 AddrRange) (var4 Heap)) (or (not (and (inv_main16 var4 var3 var2 var1 var0) (and (= var1 var0) (<= 0 (+ (+ 200000 (* (- 1) var1)) (- 1)))))) (inv_main16 var4 var3 var2 (+ var1 1) var0))))
(assert (forall ((var0 Int) (var1 Int) (var2 Int) (var3 AddrRange) (var4 AddrRange) (var5 Heap)) (or (not (and (inv_main28 var5 var4 var3 var2 var1 var0) (and (is-O_Int (read var5 (nthAddrRange var4 var0))) (is-O_Int (read var5 (nthAddrRange var3 var0)))))) (inv_main25 var5 var4 var3 var2 var1 (+ var0 1)))))
(assert (forall ((var0 Int) (var1 Int) (var2 Int) (var3 AddrRange) (var4 AddrRange) (var5 Heap)) (or (not (and (inv_main25 var5 var4 var3 var2 var1 var0) (and (= var0 var1) (<= 0 (+ (+ 200000 (* (- 1) var0)) (- 1)))))) (inv_main25 var5 var4 var3 var2 var1 (+ var0 1)))))
(assert (forall ((var0 Int) (var1 Int) (var2 AddrRange) (var3 AddrRange) (var4 Heap)) (or (not (and (inv_main16 var4 var3 var2 var1 var0) (not (<= 0 (+ (+ 200000 (* (- 1) var1)) (- 1)))))) (inv_main25 var4 var3 var2 var1 150001 0))))
(assert (forall ((var0 Int) (var1 Int) (var2 AddrRange) (var3 AddrRange) (var4 Heap)) (or (not (and (inv_main16 var4 var3 var2 var1 var0) (and (not (= var1 var0)) (<= 0 (+ (+ 200000 (* (- 1) var1)) (- 1)))))) (inv_main19 var4 var3 var2 var1 var0))))
(assert (forall ((var0 Int) (var1 Int) (var2 AddrRange) (var3 AddrRange) (var4 Heap)) (or (not (and (inv_main19 var4 var3 var2 var1 var0) (is-O_Int (read var4 (nthAddrRange var3 var1))))) (inv_main21 var4 var3 var2 var1 var0 (getInt (read var4 (nthAddrRange var3 var1)))))))
(assert (forall ((var0 Int) (var1 Int) (var2 AddrRange) (var3 AddrRange) (var4 Heap)) (not (and (inv_main13 var4 var3 var2 var1 var0) (not (is-O_Int (read var4 (nthAddrRange var3 var1))))))))
(assert (forall ((var0 Int) (var1 Int) (var2 AddrRange) (var3 AddrRange) (var4 Heap)) (not (and (inv_main13 var4 var3 var2 var1 var0) (and (is-O_Int (read var4 (nthAddrRange var3 var1))) (not (within var3 (nthAddrRange var3 var1))))))))
(assert (forall ((var0 Int) (var1 Int) (var2 AddrRange) (var3 AddrRange) (var4 Heap)) (not (and (inv_main13 var4 var3 var2 var1 var0) (and (is-O_Int (read var4 (nthAddrRange var3 var1))) (not (is-O_Int (read var4 (nthAddrRange var3 var1)))))))))
(assert (forall ((var0 Int) (var1 Int) (var2 AddrRange) (var3 AddrRange) (var4 Heap)) (not (and (inv_main14 var4 var3 var2 var1 var0) (not (is-O_Int (read var4 (nthAddrRange var2 var1))))))))
(assert (forall ((var0 Int) (var1 Int) (var2 AddrRange) (var3 AddrRange) (var4 Heap)) (not (and (inv_main14 var4 var3 var2 var1 var0) (and (is-O_Int (read var4 (nthAddrRange var2 var1))) (not (within var2 (nthAddrRange var2 var1))))))))
(assert (forall ((var0 Int) (var1 Int) (var2 AddrRange) (var3 AddrRange) (var4 Heap)) (not (and (inv_main14 var4 var3 var2 var1 var0) (and (is-O_Int (read var4 (nthAddrRange var2 var1))) (not (is-O_Int (read var4 (nthAddrRange var2 var1)))))))))
(assert (forall ((var0 Int) (var1 Int) (var2 AddrRange) (var3 AddrRange) (var4 Heap)) (not (and (inv_main19 var4 var3 var2 var1 var0) (not (is-O_Int (read var4 (nthAddrRange var3 var1))))))))
(assert (forall ((var0 Int) (var1 Int) (var2 AddrRange) (var3 AddrRange) (var4 Heap)) (not (and (inv_main19 var4 var3 var2 var1 var0) (and (is-O_Int (read var4 (nthAddrRange var3 var1))) (not (within var3 (nthAddrRange var3 var1))))))))
(assert (forall ((var0 Int) (var1 Int) (var2 Int) (var3 AddrRange) (var4 AddrRange) (var5 Heap)) (not (and (inv_main21 var5 var4 var3 var2 var1 var0) (not (is-O_Int (read var5 (nthAddrRange var3 var2))))))))
(assert (forall ((var0 Int) (var1 Int) (var2 Int) (var3 AddrRange) (var4 AddrRange) (var5 Heap)) (not (and (inv_main21 var5 var4 var3 var2 var1 var0) (and (is-O_Int (read var5 (nthAddrRange var3 var2))) (not (within var3 (nthAddrRange var3 var2))))))))
(assert (forall ((var0 Int) (var1 Int) (var2 Int) (var3 AddrRange) (var4 AddrRange) (var5 Heap)) (not (and (inv_main21 var5 var4 var3 var2 var1 var0) (and (is-O_Int (read var5 (nthAddrRange var3 var2))) (not (is-O_Int (read var5 (nthAddrRange var3 var2)))))))))
(assert (forall ((var0 Int) (var1 Int) (var2 Int) (var3 AddrRange) (var4 AddrRange) (var5 Heap)) (not (and (inv_main28 var5 var4 var3 var2 var1 var0) (not (is-O_Int (read var5 (nthAddrRange var4 var0))))))))
(assert (forall ((var0 Int) (var1 Int) (var2 Int) (var3 AddrRange) (var4 AddrRange) (var5 Heap)) (not (and (inv_main28 var5 var4 var3 var2 var1 var0) (not (within var4 (nthAddrRange var4 var0)))))))
(assert (forall ((var0 Int) (var1 Int) (var2 Int) (var3 AddrRange) (var4 AddrRange) (var5 Heap)) (not (and (inv_main28 var5 var4 var3 var2 var1 var0) (not (is-O_Int (read var5 (nthAddrRange var3 var0))))))))
(assert (forall ((var0 Int) (var1 Int) (var2 Int) (var3 AddrRange) (var4 AddrRange) (var5 Heap)) (not (and (inv_main28 var5 var4 var3 var2 var1 var0) (not (within var3 (nthAddrRange var3 var0)))))))
(assert (forall ((var0 Int) (var1 Int) (var2 Int) (var3 AddrRange) (var4 AddrRange) (var5 Heap)) (not (and (inv_main28 var5 var4 var3 var2 var1 var0) (not (is-O_Int (read var5 (nthAddrRange var4 var0))))))))
(assert (forall ((var0 Int) (var1 Int) (var2 Int) (var3 AddrRange) (var4 AddrRange) (var5 Heap)) (not (and (inv_main28 var5 var4 var3 var2 var1 var0) (and (is-O_Int (read var5 (nthAddrRange var4 var0))) (not (within var4 (nthAddrRange var4 var0))))))))
(assert (forall ((var0 Int) (var1 Int) (var2 Int) (var3 AddrRange) (var4 AddrRange) (var5 Heap)) (not (and (inv_main28 var5 var4 var3 var2 var1 var0) (and (is-O_Int (read var5 (nthAddrRange var4 var0))) (not (is-O_Int (read var5 (nthAddrRange var3 var0)))))))))
(assert (forall ((var0 Int) (var1 Int) (var2 Int) (var3 AddrRange) (var4 AddrRange) (var5 Heap)) (not (and (inv_main28 var5 var4 var3 var2 var1 var0) (and (and (is-O_Int (read var5 (nthAddrRange var4 var0))) (is-O_Int (read var5 (nthAddrRange var3 var0)))) (not (within var3 (nthAddrRange var3 var0))))))))
(assert (forall ((var0 Int) (var1 Int) (var2 Int) (var3 AddrRange) (var4 AddrRange) (var5 Heap)) (not (and (inv_main28 var5 var4 var3 var2 var1 var0) (and (and (is-O_Int (read var5 (nthAddrRange var4 var0))) (is-O_Int (read var5 (nthAddrRange var3 var0)))) (not (= (getInt (read var5 (nthAddrRange var4 var0))) (getInt (read var5 (nthAddrRange var3 var0))))))))))
(check-sat)
